40	100	100	100
30	16	23
23	29	39
49	41	38
14	4	38
49	48	37
32	34	46
4	29	2
43	18	32
28	23	13
43	12	7
15	14	8
43	18	32
26	16	43
21	16	22
15	48	22
27	24	32
41	4	25
9	15	17
8	24	16
11	22	30
33	48	13
43	45	42
17	9	19
23	14	26
42	44	19
26	7	16
39	42	23
6	18	8
18	35	6
34	8	18
49	29	46
29	38	10
21	45	19
41	14	25
6	35	14
2	13	40
35	12	30
30	9	26
23	43	28
21	33	19
